% demand
num_movements = 25;
loading_factor = [1300, 800, 1350, 900, 1050, 2000, 800, 1350, 1000, 1750, 1000, 2000, 1800, 1500, 1900, 1750, 1250, 1450, 1750, 1900, 1500, 1550, 1100, 1850, 1100];
pickup_time = [0, 0, 0, 0, 1, 1, 1, 1, 1, 1, 2, 3, 3, 3, 3, 5, 5, 5, 5, 9, 9, 9, 9, 10, 10];
delivery_time = [1, 1, 1, 2, 2, 2, 2, 2, 2, 2, 9, 5, 11, 4, 9, 11, 10, 7, 8, 11, 11, 10, 11, 11, 11];

% transporter definition
total_capacity = 11000;
num_decks = 4;
capacity = [3000, 3000, 1000, 4000];

% ways out of decks
num_ways_out = 2;
paths_out = array3d(decks, ways_out, decks, [
% ways out of deck d1
2, 4, 0, 0, 3, 4, 0, 0, 

% ways out of deck d2
4, 0, 0, 0, 0, 0, 0, 0,	

% ways out of deck d3
4, 0, 0, 0, 0, 0, 0, 0,	

% ways out of deck d4
0, 0, 0, 0,	0, 0, 0, 0,	

]);

